(set-logic QF_FPABV)
(declare-fun b31 () (_ FP 8 24))
(declare-fun b115 () (_ FP 8 24))
(declare-fun b106 () (_ FP 8 24))
(declare-fun b94 () (_ FP 8 24))
(declare-fun b58 () (_ FP 8 24))
(declare-fun b109 () (_ FP 8 24))
(declare-fun b222 () (_ FP 8 24))
(declare-fun b52 () (_ FP 8 24))
(declare-fun b13 () (_ FP 8 24))
(declare-fun b34 () (_ FP 8 24))
(declare-fun b43 () (_ FP 8 24))
(declare-fun b112 () (_ FP 8 24))
(declare-fun b118 () (_ FP 8 24))
(declare-fun b49 () (_ FP 8 24))
(declare-fun b82 () (_ FP 8 24))
(declare-fun b219 () (_ FP 8 24))
(declare-fun b25 () (_ FP 8 24))
(declare-fun b67 () (_ FP 8 24))
(declare-fun b121 () (_ FP 8 24))
(declare-fun b73 () (_ FP 8 24))
(declare-fun b11 () (_ FP 8 24))
(declare-fun b55 () (_ FP 8 24))
(declare-fun b22 () (_ FP 8 24))
(declare-fun b28 () (_ FP 8 24))
(declare-fun b88 () (_ FP 8 24))
(declare-fun b16 () (_ FP 8 24))
(declare-fun b127 () (_ FP 8 24))
(declare-fun b91 () (_ FP 8 24))
(declare-fun b79 () (_ FP 8 24))
(declare-fun b61 () (_ FP 8 24))
(declare-fun b64 () (_ FP 8 24))
(declare-fun b103 () (_ FP 8 24))
(declare-fun b46 () (_ FP 8 24))
(declare-fun b124 () (_ FP 8 24))
(declare-fun b40 () (_ FP 8 24))
(declare-fun b131 () (_ FP 11 53))
(declare-fun b76 () (_ FP 8 24))
(declare-fun b85 () (_ FP 8 24))
(declare-fun b37 () (_ FP 8 24))
(declare-fun b70 () (_ FP 8 24))
(declare-fun b97 () (_ FP 8 24))
(declare-fun b19 () (_ FP 8 24))
(declare-fun b100 () (_ FP 8 24))
(define-fun .3 () RoundingMode roundNearestTiesToEven)
(define-fun .9 () (_ FP 8 24) b219)
(define-fun .10 () (_ FP 8 24) b11)
(define-fun .11 () Bool (< .9 .10))
(define-fun .12 () (_ FP 8 24) b13)
(define-fun .13 () (_ FP 8 24) (* .3 .10 .12))
(define-fun .14 () (_ FP 8 24) b16)
(define-fun .15 () (_ FP 8 24) (* .3 .13 .14))
(define-fun .16 () (_ FP 8 24) b19)
(define-fun .17 () (_ FP 8 24) (* .3 .15 .16))
(define-fun .18 () (_ FP 8 24) b22)
(define-fun .19 () (_ FP 8 24) (* .3 .17 .18))
(define-fun .20 () (_ FP 8 24) b25)
(define-fun .21 () (_ FP 8 24) (* .3 .19 .20))
(define-fun .22 () (_ FP 8 24) b28)
(define-fun .23 () (_ FP 8 24) (* .3 .21 .22))
(define-fun .24 () (_ FP 8 24) b31)
(define-fun .25 () (_ FP 8 24) (* .3 .23 .24))
(define-fun .26 () (_ FP 8 24) b34)
(define-fun .27 () (_ FP 8 24) (* .3 .25 .26))
(define-fun .28 () (_ FP 8 24) b37)
(define-fun .29 () (_ FP 8 24) (* .3 .27 .28))
(define-fun .30 () (_ FP 8 24) b40)
(define-fun .31 () (_ FP 8 24) (* .3 .29 .30))
(define-fun .32 () (_ FP 8 24) b43)
(define-fun .33 () (_ FP 8 24) (* .3 .31 .32))
(define-fun .34 () (_ FP 8 24) b46)
(define-fun .35 () (_ FP 8 24) (* .3 .33 .34))
(define-fun .36 () (_ FP 8 24) b49)
(define-fun .37 () (_ FP 8 24) (* .3 .35 .36))
(define-fun .38 () (_ FP 8 24) b52)
(define-fun .39 () (_ FP 8 24) (* .3 .37 .38))
(define-fun .40 () (_ FP 8 24) b55)
(define-fun .41 () (_ FP 8 24) (* .3 .39 .40))
(define-fun .42 () (_ FP 8 24) b58)
(define-fun .43 () (_ FP 8 24) (* .3 .41 .42))
(define-fun .44 () (_ FP 8 24) b61)
(define-fun .45 () (_ FP 8 24) (* .3 .43 .44))
(define-fun .46 () (_ FP 8 24) b64)
(define-fun .47 () (_ FP 8 24) (* .3 .45 .46))
(define-fun .48 () (_ FP 8 24) b67)
(define-fun .49 () (_ FP 8 24) (* .3 .47 .48))
(define-fun .50 () (_ FP 8 24) b70)
(define-fun .51 () (_ FP 8 24) (* .3 .49 .50))
(define-fun .52 () (_ FP 8 24) b73)
(define-fun .53 () (_ FP 8 24) (* .3 .51 .52))
(define-fun .54 () (_ FP 8 24) b76)
(define-fun .55 () (_ FP 8 24) (* .3 .53 .54))
(define-fun .56 () (_ FP 8 24) b79)
(define-fun .57 () (_ FP 8 24) (* .3 .55 .56))
(define-fun .58 () (_ FP 8 24) b82)
(define-fun .59 () (_ FP 8 24) (* .3 .57 .58))
(define-fun .60 () (_ FP 8 24) b85)
(define-fun .61 () (_ FP 8 24) (* .3 .59 .60))
(define-fun .62 () (_ FP 8 24) b88)
(define-fun .63 () (_ FP 8 24) (* .3 .61 .62))
(define-fun .64 () (_ FP 8 24) b91)
(define-fun .65 () (_ FP 8 24) (* .3 .63 .64))
(define-fun .66 () (_ FP 8 24) b94)
(define-fun .67 () (_ FP 8 24) (* .3 .65 .66))
(define-fun .68 () (_ FP 8 24) b97)
(define-fun .69 () (_ FP 8 24) (* .3 .67 .68))
(define-fun .70 () (_ FP 8 24) b100)
(define-fun .71 () (_ FP 8 24) (* .3 .69 .70))
(define-fun .72 () (_ FP 8 24) b103)
(define-fun .73 () (_ FP 8 24) (* .3 .71 .72))
(define-fun .74 () (_ FP 8 24) b106)
(define-fun .75 () (_ FP 8 24) (* .3 .73 .74))
(define-fun .76 () (_ FP 8 24) b109)
(define-fun .77 () (_ FP 8 24) (* .3 .75 .76))
(define-fun .78 () (_ FP 8 24) b112)
(define-fun .79 () (_ FP 8 24) (* .3 .77 .78))
(define-fun .80 () (_ FP 8 24) b115)
(define-fun .81 () (_ FP 8 24) (* .3 .79 .80))
(define-fun .82 () (_ FP 8 24) b118)
(define-fun .83 () (_ FP 8 24) (* .3 .81 .82))
(define-fun .84 () (_ FP 8 24) b121)
(define-fun .85 () (_ FP 8 24) (* .3 .83 .84))
(define-fun .86 () (_ FP 8 24) b124)
(define-fun .87 () (_ FP 8 24) (* .3 .85 .86))
(define-fun .88 () (_ FP 8 24) b127)
(define-fun .89 () (_ FP 8 24) (* .3 .87 .88))
(define-fun .90 () (_ FP 11 53) ((_ asFloat 11 53) .3 .89))
(define-fun .91 () (_ FP 11 53) b131)
(define-fun .92 () Bool (< .91 .90))
(define-fun .93 () Bool (and .11 .92))
(define-fun .94 () (_ FP 8 24) b222)
(define-fun .95 () Bool (< .10 .94))
(define-fun .96 () Bool (and .93 .95))
(define-fun .97 () Bool (< .9 .12))
(define-fun .98 () Bool (and .96 .97))
(define-fun .99 () Bool (< .12 .94))
(define-fun .100 () Bool (and .98 .99))
(define-fun .101 () Bool (< .9 .14))
(define-fun .102 () Bool (and .100 .101))
(define-fun .103 () Bool (< .14 .94))
(define-fun .104 () Bool (and .102 .103))
(define-fun .105 () Bool (< .9 .16))
(define-fun .106 () Bool (and .104 .105))
(define-fun .107 () Bool (< .16 .94))
(define-fun .108 () Bool (and .106 .107))
(define-fun .109 () Bool (< .9 .18))
(define-fun .110 () Bool (and .108 .109))
(define-fun .111 () Bool (< .18 .94))
(define-fun .112 () Bool (and .110 .111))
(define-fun .113 () Bool (< .9 .20))
(define-fun .114 () Bool (and .112 .113))
(define-fun .115 () Bool (< .20 .94))
(define-fun .116 () Bool (and .114 .115))
(define-fun .117 () Bool (< .9 .22))
(define-fun .118 () Bool (and .116 .117))
(define-fun .119 () Bool (< .22 .94))
(define-fun .120 () Bool (and .118 .119))
(define-fun .121 () Bool (< .9 .24))
(define-fun .122 () Bool (and .120 .121))
(define-fun .123 () Bool (< .24 .94))
(define-fun .124 () Bool (and .122 .123))
(define-fun .125 () Bool (< .9 .26))
(define-fun .126 () Bool (and .124 .125))
(define-fun .127 () Bool (< .26 .94))
(define-fun .128 () Bool (and .126 .127))
(define-fun .129 () Bool (< .9 .28))
(define-fun .130 () Bool (and .128 .129))
(define-fun .131 () Bool (< .28 .94))
(define-fun .132 () Bool (and .130 .131))
(define-fun .133 () Bool (< .9 .30))
(define-fun .134 () Bool (and .132 .133))
(define-fun .135 () Bool (< .30 .94))
(define-fun .136 () Bool (and .134 .135))
(define-fun .137 () Bool (< .9 .32))
(define-fun .138 () Bool (and .136 .137))
(define-fun .139 () Bool (< .32 .94))
(define-fun .140 () Bool (and .138 .139))
(define-fun .141 () Bool (< .9 .34))
(define-fun .142 () Bool (and .140 .141))
(define-fun .143 () Bool (< .34 .94))
(define-fun .144 () Bool (and .142 .143))
(define-fun .145 () Bool (< .9 .36))
(define-fun .146 () Bool (and .144 .145))
(define-fun .147 () Bool (< .36 .94))
(define-fun .148 () Bool (and .146 .147))
(define-fun .149 () Bool (< .9 .38))
(define-fun .150 () Bool (and .148 .149))
(define-fun .151 () Bool (< .38 .94))
(define-fun .152 () Bool (and .150 .151))
(define-fun .153 () Bool (< .9 .40))
(define-fun .154 () Bool (and .152 .153))
(define-fun .155 () Bool (< .40 .94))
(define-fun .156 () Bool (and .154 .155))
(define-fun .157 () Bool (< .9 .42))
(define-fun .158 () Bool (and .156 .157))
(define-fun .159 () Bool (< .42 .94))
(define-fun .160 () Bool (and .158 .159))
(define-fun .161 () Bool (< .9 .44))
(define-fun .162 () Bool (and .160 .161))
(define-fun .163 () Bool (< .44 .94))
(define-fun .164 () Bool (and .162 .163))
(define-fun .165 () Bool (< .9 .46))
(define-fun .166 () Bool (and .164 .165))
(define-fun .167 () Bool (< .46 .94))
(define-fun .168 () Bool (and .166 .167))
(define-fun .169 () Bool (< .9 .48))
(define-fun .170 () Bool (and .168 .169))
(define-fun .171 () Bool (< .48 .94))
(define-fun .172 () Bool (and .170 .171))
(define-fun .173 () Bool (< .9 .50))
(define-fun .174 () Bool (and .172 .173))
(define-fun .175 () Bool (< .50 .94))
(define-fun .176 () Bool (and .174 .175))
(define-fun .177 () Bool (< .9 .52))
(define-fun .178 () Bool (and .176 .177))
(define-fun .179 () Bool (< .52 .94))
(define-fun .180 () Bool (and .178 .179))
(define-fun .181 () Bool (< .9 .54))
(define-fun .182 () Bool (and .180 .181))
(define-fun .183 () Bool (< .54 .94))
(define-fun .184 () Bool (and .182 .183))
(define-fun .185 () Bool (< .9 .56))
(define-fun .186 () Bool (and .184 .185))
(define-fun .187 () Bool (< .56 .94))
(define-fun .188 () Bool (and .186 .187))
(define-fun .189 () Bool (< .9 .58))
(define-fun .190 () Bool (and .188 .189))
(define-fun .191 () Bool (< .58 .94))
(define-fun .192 () Bool (and .190 .191))
(define-fun .193 () Bool (< .9 .60))
(define-fun .194 () Bool (and .192 .193))
(define-fun .195 () Bool (< .60 .94))
(define-fun .196 () Bool (and .194 .195))
(define-fun .197 () Bool (< .9 .62))
(define-fun .198 () Bool (and .196 .197))
(define-fun .199 () Bool (< .62 .94))
(define-fun .200 () Bool (and .198 .199))
(define-fun .201 () Bool (< .9 .64))
(define-fun .202 () Bool (and .200 .201))
(define-fun .203 () Bool (< .64 .94))
(define-fun .204 () Bool (and .202 .203))
(define-fun .205 () Bool (< .9 .66))
(define-fun .206 () Bool (and .204 .205))
(define-fun .207 () Bool (< .66 .94))
(define-fun .208 () Bool (and .206 .207))
(define-fun .209 () Bool (< .9 .68))
(define-fun .210 () Bool (and .208 .209))
(define-fun .211 () Bool (< .68 .94))
(define-fun .212 () Bool (and .210 .211))
(define-fun .213 () Bool (< .9 .70))
(define-fun .214 () Bool (and .212 .213))
(define-fun .215 () Bool (< .70 .94))
(define-fun .216 () Bool (and .214 .215))
(define-fun .217 () Bool (< .9 .72))
(define-fun .218 () Bool (and .216 .217))
(define-fun .219 () Bool (< .72 .94))
(define-fun .220 () Bool (and .218 .219))
(define-fun .221 () Bool (< .9 .74))
(define-fun .222 () Bool (and .220 .221))
(define-fun .223 () Bool (< .74 .94))
(define-fun .224 () Bool (and .222 .223))
(define-fun .225 () Bool (< .9 .76))
(define-fun .226 () Bool (and .224 .225))
(define-fun .227 () Bool (< .76 .94))
(define-fun .228 () Bool (and .226 .227))
(define-fun .229 () Bool (< .9 .78))
(define-fun .230 () Bool (and .228 .229))
(define-fun .231 () Bool (< .78 .94))
(define-fun .232 () Bool (and .230 .231))
(define-fun .233 () Bool (< .9 .80))
(define-fun .234 () Bool (and .232 .233))
(define-fun .235 () Bool (< .80 .94))
(define-fun .236 () Bool (and .234 .235))
(define-fun .237 () Bool (< .9 .82))
(define-fun .238 () Bool (and .236 .237))
(define-fun .239 () Bool (< .82 .94))
(define-fun .240 () Bool (and .238 .239))
(define-fun .241 () Bool (< .9 .84))
(define-fun .242 () Bool (and .240 .241))
(define-fun .243 () Bool (< .84 .94))
(define-fun .244 () Bool (and .242 .243))
(define-fun .245 () Bool (< .9 .86))
(define-fun .246 () Bool (and .244 .245))
(define-fun .247 () Bool (< .86 .94))
(define-fun .248 () Bool (and .246 .247))
(define-fun .249 () Bool (< .9 .88))
(define-fun .250 () Bool (and .248 .249))
(define-fun .251 () Bool (< .88 .94))
(define-fun .252 () Bool (and .250 .251))
(assert .252)
(check-sat)
